(declare-rel state (Bool Int Int Int Int Int Int Bool Bool Bool Int Int Int Bool Bool Bool Bool Bool Bool Bool Bool))
(declare-var |_OK_| Bool)
(declare-var |_OK_.next| Bool)
(declare-var |call_speed.call__COUNTER_._C_| Int)
(declare-var |call_speed.call__COUNTER_._C_.next| Int)
(declare-var |call_speed.call__COUNTER_._PC_| Int)
(declare-var |call_speed.call__COUNTER_._PC_.next| Int)
(declare-var |call_speed.call__COUNTER_.flby| Int)
(declare-var |call_speed.call__COUNTER_.flby.next| Int)
(declare-var |call_speed.call__COUNTER_.ite_keyword| Int)
(declare-var |call_speed.call__COUNTER_.ite_keyword.next| Int)
(declare-var |call_speed.call__COUNTER_.ite_keyword2| Int)
(declare-var |call_speed.call__COUNTER_.ite_keyword2.next| Int)
(declare-var |call_speed.diff| Int)
(declare-var |call_speed.diff.next| Int)
(declare-var |call_speed.early| Bool)
(declare-var |call_speed.early.next| Bool)
(declare-var |call_speed.flby| Bool)
(declare-var |call_speed.flby.next| Bool)
(declare-var |call_speed.flby2| Bool)
(declare-var |call_speed.flby2.next| Bool)
(declare-var |call_speed.incr| Int)
(declare-var |call_speed.incr.next| Int)
(declare-var |call_speed.ite_keyword| Int)
(declare-var |call_speed.ite_keyword.next| Int)
(declare-var |call_speed.ite_keyword2| Int)
(declare-var |call_speed.ite_keyword2.next| Int)
(declare-var |call_speed.ite_keyword3| Bool)
(declare-var |call_speed.ite_keyword3.next| Bool)
(declare-var |call_speed.ite_keyword4| Bool)
(declare-var |call_speed.ite_keyword4.next| Bool)
(declare-var |call_speed.late| Bool)
(declare-var |call_speed.late.next| Bool)
(declare-var |early| Bool)
(declare-var |early.next| Bool)
(declare-var |flby| Bool)
(declare-var |flby.next| Bool)
(declare-var |late| Bool)
(declare-var |late.next| Bool)
(declare-var |param_beacon| Bool)
(declare-var |param_beacon.next| Bool)
(declare-var |param_second| Bool)
(declare-var |param_second.next| Bool)

(define-fun .init () Bool
(let ((.def_79 (= flby _OK_)))
(let ((.def_77 (= call_speed.late late)))
(let ((.def_80 (and .def_77 .def_79)))
(let ((.def_75 (= call_speed.early early)))
(let ((.def_81 (and .def_75 .def_80)))
(let ((.def_67 (= call_speed.call__COUNTER_.ite_keyword call_speed.call__COUNTER_._PC_)))
(let ((.def_55 (or param_second param_beacon)))
(let ((.def_68 (or .def_55 .def_67)))
(let ((.def_61 (* (- 1) call_speed.incr)))
(let ((.def_62 (* (- 1) call_speed.call__COUNTER_._PC_)))
(let ((.def_63 (+ .def_62 .def_61)))
(let ((.def_64 (+ call_speed.call__COUNTER_.ite_keyword .def_63)))
(let ((.def_65 (= .def_64 0)))
(let ((.def_56 (not .def_55)))
(let ((.def_66 (or .def_56 .def_65)))
(let ((.def_69 (and .def_66 .def_68)))
(let ((.def_53 (= call_speed.ite_keyword 2)))
(let ((.def_48 (not param_beacon)))
(let ((.def_49 (and param_second .def_48)))
(let ((.def_51 (not .def_49)))
(let ((.def_54 (or .def_51 .def_53)))
(let ((.def_70 (and .def_54 .def_69)))
(let ((.def_47 (= call_speed.ite_keyword 0)))
(let ((.def_50 (or .def_47 .def_49)))
(let ((.def_71 (and .def_50 .def_70)))
(let ((.def_45 (= call_speed.ite_keyword2 1)))
(let ((.def_39 (not param_second)))
(let ((.def_41 (and .def_39 param_beacon)))
(let ((.def_43 (not .def_41)))
(let ((.def_46 (or .def_43 .def_45)))
(let ((.def_72 (and .def_46 .def_71)))
(let ((.def_37 (= call_speed.ite_keyword2 call_speed.ite_keyword)))
(let ((.def_42 (or .def_37 .def_41)))
(let ((.def_73 (and .def_42 .def_72)))
(let ((.def_82 (and .def_73 .def_81)))
(let ((.def_35 (= call_speed.flby2 call_speed.late)))
(let ((.def_83 (and .def_35 .def_82)))
(let ((.def_33 (= call_speed.flby call_speed.early)))
(let ((.def_84 (and .def_33 .def_83)))
(let ((.def_31 (= call_speed.call__COUNTER_._C_ call_speed.diff)))
(let ((.def_85 (and .def_31 .def_84)))
(let ((.def_29 (= call_speed.incr call_speed.ite_keyword2)))
(let ((.def_86 (and .def_29 .def_85)))
(let ((.def_26 (= call_speed.call__COUNTER_.ite_keyword2 call_speed.call__COUNTER_._C_)))
(let ((.def_87 (and .def_26 .def_86)))
(let ((.def_24 (= call_speed.call__COUNTER_.flby call_speed.call__COUNTER_._PC_)))
(let ((.def_88 (and .def_24 .def_87)))
(let ((.def_22 (= call_speed.call__COUNTER_.ite_keyword call_speed.call__COUNTER_.ite_keyword2)))
(let ((.def_89 (and .def_22 .def_88)))
(let ((.def_15 (not call_speed.flby)))
(let ((.def_17 (and .def_15 flby)))
(let ((.def_13 (not call_speed.flby2)))
(let ((.def_18 (and .def_13 .def_17)))
(let ((.def_11 (= call_speed.call__COUNTER_.flby 0)))
(let ((.def_19 (and .def_11 .def_18)))
(let ((.def_90 (and .def_19 .def_89)))
.def_90)))))))))))))))))))))))))))))))))))))))))))))))))))))))))

(define-fun .trans () Bool
(let ((.def_189 (not early)))
(let ((.def_188 (not late.next)))
(let ((.def_190 (or .def_188 .def_189)))
(let ((.def_191 (= flby.next .def_190)))
(let ((.def_184 (<= call_speed.diff.next (- 10))))
(let ((.def_185 (= call_speed.ite_keyword4.next .def_184)))
(let ((.def_186 (or call_speed.late .def_185)))
(let ((.def_179 (<= 0 call_speed.diff.next)))
(let ((.def_180 (not .def_179)))
(let ((.def_181 (= call_speed.ite_keyword4.next .def_180)))
(let ((.def_178 (not call_speed.late)))
(let ((.def_182 (or .def_178 .def_181)))
(let ((.def_187 (and .def_182 .def_186)))
(let ((.def_192 (and .def_187 .def_191)))
(let ((.def_174 (<= 10 call_speed.diff.next)))
(let ((.def_175 (= call_speed.ite_keyword3.next .def_174)))
(let ((.def_176 (or call_speed.early .def_175)))
(let ((.def_169 (<= call_speed.diff.next 0)))
(let ((.def_170 (not .def_169)))
(let ((.def_171 (= call_speed.ite_keyword3.next .def_170)))
(let ((.def_168 (not call_speed.early)))
(let ((.def_172 (or .def_168 .def_171)))
(let ((.def_177 (and .def_172 .def_176)))
(let ((.def_193 (and .def_177 .def_192)))
(let ((.def_167 (= call_speed.flby.next call_speed.ite_keyword3.next)))
(let ((.def_194 (and .def_167 .def_193)))
(let ((.def_165 (= call_speed.flby2.next call_speed.ite_keyword4.next)))
(let ((.def_195 (and .def_165 .def_194)))
(let ((.def_163 (= call_speed.call__COUNTER_._C_ call_speed.call__COUNTER_.flby.next)))
(let ((.def_196 (and .def_163 .def_195)))
(let ((.def_151 (= flby.next _OK_.next)))
(let ((.def_148 (= call_speed.late.next late.next)))
(let ((.def_152 (and .def_148 .def_151)))
(let ((.def_146 (= call_speed.early.next early.next)))
(let ((.def_153 (and .def_146 .def_152)))
(let ((.def_138 (= call_speed.call__COUNTER_.ite_keyword.next call_speed.call__COUNTER_._PC_.next)))
(let ((.def_127 (or param_second.next param_beacon.next)))
(let ((.def_139 (or .def_127 .def_138)))
(let ((.def_132 (* (- 1) call_speed.incr.next)))
(let ((.def_133 (* (- 1) call_speed.call__COUNTER_._PC_.next)))
(let ((.def_134 (+ .def_133 .def_132)))
(let ((.def_135 (+ call_speed.call__COUNTER_.ite_keyword.next .def_134)))
(let ((.def_136 (= .def_135 0)))
(let ((.def_128 (not .def_127)))
(let ((.def_137 (or .def_128 .def_136)))
(let ((.def_140 (and .def_137 .def_139)))
(let ((.def_125 (= call_speed.ite_keyword.next 2)))
(let ((.def_121 (not param_beacon.next)))
(let ((.def_122 (and param_second.next .def_121)))
(let ((.def_124 (not .def_122)))
(let ((.def_126 (or .def_124 .def_125)))
(let ((.def_141 (and .def_126 .def_140)))
(let ((.def_120 (= call_speed.ite_keyword.next 0)))
(let ((.def_123 (or .def_120 .def_122)))
(let ((.def_142 (and .def_123 .def_141)))
(let ((.def_118 (= call_speed.ite_keyword2.next 1)))
(let ((.def_113 (not param_second.next)))
(let ((.def_115 (and .def_113 param_beacon.next)))
(let ((.def_117 (not .def_115)))
(let ((.def_119 (or .def_117 .def_118)))
(let ((.def_143 (and .def_119 .def_142)))
(let ((.def_111 (= call_speed.ite_keyword2.next call_speed.ite_keyword.next)))
(let ((.def_116 (or .def_111 .def_115)))
(let ((.def_144 (and .def_116 .def_143)))
(let ((.def_154 (and .def_144 .def_153)))
(let ((.def_109 (= call_speed.flby2.next call_speed.late.next)))
(let ((.def_155 (and .def_109 .def_154)))
(let ((.def_106 (= call_speed.flby.next call_speed.early.next)))
(let ((.def_156 (and .def_106 .def_155)))
(let ((.def_103 (= call_speed.call__COUNTER_._C_.next call_speed.diff.next)))
(let ((.def_157 (and .def_103 .def_156)))
(let ((.def_101 (= call_speed.incr.next call_speed.ite_keyword2.next)))
(let ((.def_158 (and .def_101 .def_157)))
(let ((.def_98 (= call_speed.call__COUNTER_.ite_keyword2.next call_speed.call__COUNTER_._C_.next)))
(let ((.def_159 (and .def_98 .def_158)))
(let ((.def_96 (= call_speed.call__COUNTER_.flby.next call_speed.call__COUNTER_._PC_.next)))
(let ((.def_160 (and .def_96 .def_159)))
(let ((.def_93 (= call_speed.call__COUNTER_.ite_keyword.next call_speed.call__COUNTER_.ite_keyword2.next)))
(let ((.def_161 (and .def_93 .def_160)))
(let ((.def_79 (= flby _OK_)))
(let ((.def_77 (= call_speed.late late)))
(let ((.def_80 (and .def_77 .def_79)))
(let ((.def_75 (= call_speed.early early)))
(let ((.def_81 (and .def_75 .def_80)))
(let ((.def_67 (= call_speed.call__COUNTER_.ite_keyword call_speed.call__COUNTER_._PC_)))
(let ((.def_55 (or param_second param_beacon)))
(let ((.def_68 (or .def_55 .def_67)))
(let ((.def_61 (* (- 1) call_speed.incr)))
(let ((.def_62 (* (- 1) call_speed.call__COUNTER_._PC_)))
(let ((.def_63 (+ .def_62 .def_61)))
(let ((.def_64 (+ call_speed.call__COUNTER_.ite_keyword .def_63)))
(let ((.def_65 (= .def_64 0)))
(let ((.def_56 (not .def_55)))
(let ((.def_66 (or .def_56 .def_65)))
(let ((.def_69 (and .def_66 .def_68)))
(let ((.def_53 (= call_speed.ite_keyword 2)))
(let ((.def_48 (not param_beacon)))
(let ((.def_49 (and param_second .def_48)))
(let ((.def_51 (not .def_49)))
(let ((.def_54 (or .def_51 .def_53)))
(let ((.def_70 (and .def_54 .def_69)))
(let ((.def_47 (= call_speed.ite_keyword 0)))
(let ((.def_50 (or .def_47 .def_49)))
(let ((.def_71 (and .def_50 .def_70)))
(let ((.def_45 (= call_speed.ite_keyword2 1)))
(let ((.def_39 (not param_second)))
(let ((.def_41 (and .def_39 param_beacon)))
(let ((.def_43 (not .def_41)))
(let ((.def_46 (or .def_43 .def_45)))
(let ((.def_72 (and .def_46 .def_71)))
(let ((.def_37 (= call_speed.ite_keyword2 call_speed.ite_keyword)))
(let ((.def_42 (or .def_37 .def_41)))
(let ((.def_73 (and .def_42 .def_72)))
(let ((.def_82 (and .def_73 .def_81)))
(let ((.def_35 (= call_speed.flby2 call_speed.late)))
(let ((.def_83 (and .def_35 .def_82)))
(let ((.def_33 (= call_speed.flby call_speed.early)))
(let ((.def_84 (and .def_33 .def_83)))
(let ((.def_31 (= call_speed.call__COUNTER_._C_ call_speed.diff)))
(let ((.def_85 (and .def_31 .def_84)))
(let ((.def_29 (= call_speed.incr call_speed.ite_keyword2)))
(let ((.def_86 (and .def_29 .def_85)))
(let ((.def_26 (= call_speed.call__COUNTER_.ite_keyword2 call_speed.call__COUNTER_._C_)))
(let ((.def_87 (and .def_26 .def_86)))
(let ((.def_24 (= call_speed.call__COUNTER_.flby call_speed.call__COUNTER_._PC_)))
(let ((.def_88 (and .def_24 .def_87)))
(let ((.def_22 (= call_speed.call__COUNTER_.ite_keyword call_speed.call__COUNTER_.ite_keyword2)))
(let ((.def_89 (and .def_22 .def_88)))
(let ((.def_162 (and .def_89 .def_161)))
(let ((.def_197 (and .def_162 .def_196)))
.def_197)))))))))))))))))))))))))))))))))))))))))))))))))))))))))))))))))))))))))))))))))))))))))))))))))))))))))))))))))))))))))))))))))))

(define-fun .property () Bool
_OK_)

(rule (=> .init (state |_OK_| |call_speed.call__COUNTER_._C_| |call_speed.call__COUNTER_._PC_| |call_speed.call__COUNTER_.flby| |call_speed.call__COUNTER_.ite_keyword| |call_speed.call__COUNTER_.ite_keyword2| |call_speed.diff| |call_speed.early| |call_speed.flby| |call_speed.flby2| |call_speed.incr| |call_speed.ite_keyword| |call_speed.ite_keyword2| |call_speed.ite_keyword3| |call_speed.ite_keyword4| |call_speed.late| |early| |flby| |late| |param_beacon| |param_second|)))
(rule (=> (and (state |_OK_| |call_speed.call__COUNTER_._C_| |call_speed.call__COUNTER_._PC_| |call_speed.call__COUNTER_.flby| |call_speed.call__COUNTER_.ite_keyword| |call_speed.call__COUNTER_.ite_keyword2| |call_speed.diff| |call_speed.early| |call_speed.flby| |call_speed.flby2| |call_speed.incr| |call_speed.ite_keyword| |call_speed.ite_keyword2| |call_speed.ite_keyword3| |call_speed.ite_keyword4| |call_speed.late| |early| |flby| |late| |param_beacon| |param_second|) .trans) (state |_OK_.next| |call_speed.call__COUNTER_._C_.next| |call_speed.call__COUNTER_._PC_.next| |call_speed.call__COUNTER_.flby.next| |call_speed.call__COUNTER_.ite_keyword.next| |call_speed.call__COUNTER_.ite_keyword2.next| |call_speed.diff.next| |call_speed.early.next| |call_speed.flby.next| |call_speed.flby2.next| |call_speed.incr.next| |call_speed.ite_keyword.next| |call_speed.ite_keyword2.next| |call_speed.ite_keyword3.next| |call_speed.ite_keyword4.next| |call_speed.late.next| |early.next| |flby.next| |late.next| |param_beacon.next| |param_second.next|)))
(declare-rel benchmark_query ())
(rule (=> (and (state |_OK_| |call_speed.call__COUNTER_._C_| |call_speed.call__COUNTER_._PC_| |call_speed.call__COUNTER_.flby| |call_speed.call__COUNTER_.ite_keyword| |call_speed.call__COUNTER_.ite_keyword2| |call_speed.diff| |call_speed.early| |call_speed.flby| |call_speed.flby2| |call_speed.incr| |call_speed.ite_keyword| |call_speed.ite_keyword2| |call_speed.ite_keyword3| |call_speed.ite_keyword4| |call_speed.late| |early| |flby| |late| |param_beacon| |param_second|) (not .property)) benchmark_query))
(query benchmark_query)
